NAME: Random_85_2
ELLAPSED_TIME_(ms): 1
TOUR_SIZE: 2614.927
TOUR_SECTION
0
8
21
4
70
83
64
44
16
15
19
75
30
11
1
51
33
22
74
63
10
72
54
20
7
79
82
9
78
57
43
46
13
38
53
49
26
2
29
65
41
58
81
18
45
47
28
31
17
6
27
68
84
48
25
3
50
35
67
34
37
14
36
39
42
77
40
76
52
5
55
32
73
80
23
62
59
61
69
66
12
24
56
60
71
0
EOF
